316
150.0 262.0 
150.0 262.0 
220.0 304.0 
180.0 236.0 
200.0 278.0 
190.0 225.0 
220.0 256.0 
180.0 254.0 
190.0 199.0 
220.0 220.0 
230.0 206.0 
210.0 183.0 
230.0 254.0 
190.0 199.0 
210.0 233.0 
220.0 206.0 
130.0 242.0 
150.0 262.0 
220.0 304.0 
180.0 236.0 
200.0 278.0 
190.0 225.0 
220.0 256.0 
180.0 254.0 
190.0 199.0 
220.0 220.0 
230.0 206.0 
210.0 183.0 
190.0 199.0 
230.0 254.0 
210.0 233.0 
220.0 206.0 
150.0 262.0 
150.0 262.0 
220.0 304.0 
190.0 225.0 
180.0 236.0 
200.0 278.0 
220.0 256.0 
180.0 254.0 
190.0 199.0 
220.0 220.0 
230.0 206.0 
210.0 183.0 
230.0 254.0 
220.0 206.0 
210.0 233.0 
190.0 199.0 
150.0 262.0 
150.0 262.0 
180.0 236.0 
220.0 304.0 
200.0 278.0 
190.0 225.0 
220.0 256.0 
180.0 254.0 
190.0 199.0 
220.0 220.0 
230.0 206.0 
210.0 183.0 
230.0 254.0 
220.0 206.0 
210.0 233.0 
190.0 199.0 
150.0 262.0 
150.0 262.0 
180.0 236.0 
220.0 304.0 
200.0 278.0 
190.0 225.0 
220.0 256.0 
190.0 199.0 
180.0 254.0 
220.0 220.0 
230.0 206.0 
210.0 183.0 
230.0 254.0 
190.0 199.0 
210.0 233.0 
220.0 206.0 
150.0 262.0 
150.0 262.0 
180.0 236.0 
220.0 304.0 
200.0 278.0 
190.0 225.0 
220.0 256.0 
180.0 254.0 
190.0 199.0 
220.0 220.0 
230.0 206.0 
210.0 183.0 
230.0 254.0 
190.0 199.0 
210.0 233.0 
220.0 206.0 
150.0 262.0 
150.0 262.0 
180.0 236.0 
220.0 304.0 
200.0 278.0 
190.0 225.0 
220.0 256.0 
180.0 254.0 
190.0 199.0 
220.0 220.0 
230.0 206.0 
210.0 183.0 
230.0 254.0 
190.0 199.0 
210.0 233.0 
220.0 206.0 
150.0 262.0 
150.0 262.0 
180.0 236.0 
220.0 304.0 
200.0 278.0 
220.0 256.0 
180.0 254.0 
190.0 199.0 
220.0 220.0 
230.0 206.0 
210.0 183.0 
190.0 199.0 
210.0 233.0 
230.0 254.0 
220.0 206.0 
150.0 262.0 
150.0 262.0 
220.0 304.0 
180.0 236.0 
200.0 278.0 
220.0 256.0 
180.0 254.0 
190.0 199.0 
220.0 220.0 
230.0 206.0 
210.0 183.0 
230.0 254.0 
210.0 233.0 
190.0 199.0 
220.0 206.0 
150.0 262.0 
150.0 262.0 
180.0 236.0 
220.0 304.0 
190.0 225.0 
200.0 278.0 
220.0 256.0 
180.0 254.0 
190.0 199.0 
220.0 220.0 
230.0 206.0 
210.0 183.0 
230.0 254.0 
210.0 233.0 
190.0 199.0 
220.0 206.0 
150.0 262.0 
150.0 262.0 
200.0 278.0 
180.0 236.0 
220.0 304.0 
190.0 225.0 
220.0 256.0 
180.0 254.0 
190.0 199.0 
220.0 220.0 
210.0 183.0 
230.0 206.0 
230.0 254.0 
220.0 206.0 
190.0 199.0 
210.0 233.0 
130.0 242.0 
150.0 262.0 
190.0 225.0 
220.0 304.0 
200.0 278.0 
180.0 236.0 
220.0 256.0 
180.0 254.0 
190.0 199.0 
220.0 220.0 
230.0 206.0 
210.0 183.0 
230.0 254.0 
190.0 199.0 
210.0 233.0 
220.0 206.0 
130.0 242.0 
150.0 262.0 
220.0 304.0 
200.0 278.0 
180.0 236.0 
190.0 225.0 
220.0 256.0 
180.0 254.0 
190.0 199.0 
220.0 220.0 
230.0 206.0 
210.0 233.0 
230.0 254.0 
190.0 199.0 
220.0 206.0 
130.0 242.0 
150.0 262.0 
200.0 278.0 
220.0 304.0 
180.0 236.0 
190.0 225.0 
220.0 256.0 
180.0 254.0 
190.0 199.0 
220.0 220.0 
210.0 183.0 
230.0 206.0 
220.0 206.0 
230.0 254.0 
190.0 199.0 
210.0 233.0 
130.0 242.0 
150.0 262.0 
200.0 278.0 
220.0 304.0 
180.0 236.0 
190.0 225.0 
220.0 256.0 
190.0 199.0 
180.0 254.0 
220.0 220.0 
230.0 206.0 
210.0 183.0 
190.0 199.0 
210.0 233.0 
220.0 206.0 
230.0 254.0 
130.0 242.0 
150.0 262.0 
220.0 304.0 
200.0 278.0 
180.0 236.0 
190.0 225.0 
220.0 256.0 
180.0 254.0 
190.0 199.0 
220.0 220.0 
230.0 206.0 
190.0 199.0 
230.0 254.0 
220.0 206.0 
210.0 233.0 
130.0 242.0 
150.0 262.0 
200.0 278.0 
220.0 304.0 
180.0 236.0 
190.0 225.0 
220.0 256.0 
180.0 254.0 
190.0 199.0 
220.0 217.0 
210.0 183.0 
230.0 206.0 
190.0 199.0 
210.0 233.0 
230.0 254.0 
220.0 206.0 
130.0 242.0 
150.0 262.0 
180.0 236.0 
200.0 278.0 
220.0 304.0 
190.0 225.0 
220.0 256.0 
180.0 254.0 
190.0 199.0 
220.0 220.0 
210.0 183.0 
230.0 206.0 
190.0 199.0 
210.0 233.0 
230.0 254.0 
220.0 206.0 
130.0 242.0 
150.0 262.0 
200.0 278.0 
180.0 236.0 
220.0 304.0 
190.0 225.0 
220.0 256.0 
180.0 254.0 
190.0 199.0 
220.0 220.0 
230.0 206.0 
210.0 183.0 
230.0 254.0 
190.0 199.0 
210.0 233.0 
220.0 206.0 
130.0 242.0 
150.0 262.0 
220.0 304.0 
200.0 278.0 
180.0 236.0 
190.0 225.0 
220.0 256.0 
180.0 254.0 
190.0 199.0 
220.0 220.0 
230.0 206.0 
210.0 183.0 
230.0 254.0 
210.0 233.0 
190.0 199.0 
220.0 206.0 

0 23 22 26 13 27 3 2 5 1 32 
0 23 22 26 13 27 3 2 5 1 32 
0 23 22 26 21 6 4 27 13 3 5 1 32 
0 23 21 22 26 13 27 3 2 5 32 
0 22 26 23 21 6 4 27 13 3 5 32 
0 23 21 26 13 27 3 2 5 1 32 
0 23 21 6 4 27 13 3 2 5 1 32 
0 23 22 26 21 6 4 27 13 3 32 
0 23 21 6 4 27 19 3 26 32 
0 23 21 6 4 27 13 3 19 22 32 
0 23 21 6 4 27 13 3 2 19 32 
0 23 21 6 4 27 13 3 19 32 
0 23 21 6 4 27 13 3 19 26 22 32 
0 23 21 6 4 27 19 3 26 32 
0 23 21 6 4 13 27 19 26 22 32 
0 22 26 13 3 2 19 4 21 23 32 
0 23 22 26 4 27 13 3 2 32 
0 23 22 26 13 27 3 2 5 1 32 
0 23 22 26 21 6 4 27 13 3 5 1 32 
0 23 21 22 26 13 27 3 2 5 32 
0 22 26 23 21 6 4 27 13 3 5 32 
0 23 21 26 13 27 3 2 5 1 32 
0 23 21 6 4 27 13 3 2 5 1 32 
0 23 22 26 21 6 4 27 13 3 32 
0 23 21 6 4 27 19 3 26 32 
0 23 21 6 4 27 13 3 19 22 32 
0 23 21 6 4 27 13 3 2 19 32 
0 23 21 6 4 27 13 3 19 32 
0 23 21 6 4 27 19 3 26 32 
0 23 21 6 4 27 13 3 19 26 22 32 
0 23 21 6 4 13 27 19 26 22 32 
0 22 26 13 3 2 19 4 21 23 32 
0 23 22 26 13 27 3 2 5 1 32 
0 23 22 26 13 27 3 2 5 1 32 
0 23 22 26 21 6 4 27 13 3 5 1 32 
0 23 21 26 13 27 3 2 5 1 32 
0 23 21 22 26 13 27 3 2 5 32 
0 22 26 23 21 6 4 27 13 3 5 32 
0 23 21 6 4 27 13 3 2 5 1 32 
0 23 22 26 21 6 4 27 13 3 32 
0 23 21 6 4 27 19 3 26 32 
0 23 21 6 4 27 13 3 19 22 32 
0 23 21 6 4 27 13 3 2 19 32 
0 23 21 6 4 27 13 3 19 32 
0 23 21 6 4 27 13 3 19 26 22 32 
0 22 26 13 3 2 19 4 21 23 32 
0 23 21 6 4 13 27 19 26 22 32 
0 23 21 6 4 27 19 3 26 32 
0 23 22 26 13 27 3 2 5 1 32 
0 23 22 26 13 27 3 2 5 1 32 
0 23 21 22 26 13 27 3 2 5 32 
0 23 22 26 21 6 4 27 13 3 5 1 32 
0 22 26 23 21 6 4 27 13 3 5 32 
0 23 21 26 13 27 3 2 5 1 32 
0 23 21 6 4 27 13 3 2 5 1 32 
0 23 22 26 21 6 4 27 13 3 32 
0 23 21 6 4 27 19 3 26 32 
0 23 21 6 4 27 13 3 19 22 32 
0 23 21 6 4 27 13 3 2 19 32 
0 23 21 6 4 27 13 3 19 32 
0 23 21 6 4 27 13 3 19 26 22 32 
0 22 26 13 3 2 19 4 21 23 32 
0 23 21 6 4 13 27 19 26 22 32 
0 23 21 6 4 27 19 3 26 32 
0 23 22 26 13 27 3 2 5 1 32 
0 23 22 26 13 27 3 2 5 1 32 
0 23 21 22 26 13 27 3 2 5 32 
0 23 22 26 21 6 4 27 13 3 5 1 32 
0 22 26 23 21 6 4 27 13 3 5 32 
0 23 21 26 13 27 3 2 5 1 32 
0 23 21 6 4 27 13 3 2 5 1 32 
0 23 21 6 4 27 19 3 26 32 
0 23 22 26 21 6 4 27 13 3 32 
0 23 21 6 4 27 13 3 19 22 32 
0 23 21 6 4 27 13 3 2 19 32 
0 23 21 6 4 27 13 3 19 32 
0 23 21 6 4 27 13 3 19 26 22 32 
0 23 21 6 4 27 19 3 26 32 
0 23 21 6 4 13 27 19 26 22 32 
0 22 26 13 3 2 19 4 21 23 32 
0 23 22 26 13 27 3 2 5 1 32 
0 23 22 26 13 27 3 2 5 1 32 
0 23 21 22 26 13 27 3 2 5 32 
0 23 22 26 21 6 4 27 13 3 5 1 32 
0 22 26 23 21 6 4 27 13 3 5 32 
0 23 21 26 13 27 3 2 5 1 32 
0 23 21 6 4 27 13 3 2 5 1 32 
0 23 22 26 21 6 4 27 13 3 32 
0 23 21 6 4 27 19 3 26 32 
0 23 21 6 4 27 13 3 19 22 32 
0 23 21 6 4 27 13 3 2 19 32 
0 23 21 6 4 27 13 3 19 32 
0 23 21 6 4 27 13 3 19 26 22 32 
0 23 21 6 4 27 19 3 26 32 
0 23 21 6 4 13 27 19 26 22 32 
0 22 26 13 3 2 19 4 21 23 32 
0 23 22 26 13 27 3 2 5 1 32 
0 23 22 26 13 27 3 2 5 1 32 
0 23 21 22 26 13 27 3 2 5 32 
0 23 22 26 21 6 4 27 13 3 5 1 32 
0 22 26 23 21 6 4 27 13 3 5 32 
0 23 21 26 13 27 3 2 5 1 32 
0 23 21 6 4 27 13 3 2 5 1 32 
0 23 22 26 21 6 4 27 13 3 32 
0 23 21 6 4 27 19 3 26 32 
0 23 21 6 4 27 13 3 19 22 32 
0 23 21 6 4 27 13 3 2 19 32 
0 23 21 6 4 27 13 3 19 32 
0 23 21 6 4 27 13 3 19 26 22 32 
0 23 21 6 4 27 19 3 26 32 
0 23 21 6 4 13 27 19 26 22 32 
0 22 26 13 3 2 19 4 21 23 32 
0 23 22 26 13 27 3 2 5 1 32 
0 23 22 26 13 27 3 2 5 1 32 
0 23 21 22 26 13 27 3 2 5 32 
0 23 22 26 21 6 4 27 13 3 5 1 32 
0 22 26 23 21 6 4 27 13 3 5 32 
0 23 21 6 4 27 13 3 2 5 1 32 
0 23 22 26 21 6 4 27 13 3 32 
0 23 21 6 4 27 19 3 26 32 
0 23 21 6 4 27 13 3 19 22 32 
0 23 21 6 4 27 13 3 2 19 32 
0 23 21 6 4 27 13 3 19 32 
0 23 21 6 4 27 19 3 26 32 
0 23 21 6 4 13 27 19 26 22 32 
0 23 21 6 4 27 13 3 19 26 22 32 
0 22 26 13 3 2 19 4 21 23 32 
0 23 22 26 13 27 3 2 5 1 32 
0 23 22 26 13 27 3 2 5 1 32 
0 23 22 26 21 6 4 27 13 3 5 1 32 
0 23 21 22 26 13 27 3 2 5 32 
0 22 26 23 21 6 4 27 13 3 5 32 
0 23 21 6 4 27 13 3 2 5 1 32 
0 23 22 26 21 6 4 27 13 3 32 
0 23 21 6 4 27 19 3 26 32 
0 23 21 6 4 27 13 3 19 22 32 
0 23 21 6 4 27 13 3 2 19 32 
0 23 21 6 4 27 13 3 19 32 
0 23 21 6 4 27 13 3 19 26 22 32 
0 23 21 6 4 13 27 19 26 22 32 
0 23 21 6 4 27 19 3 26 32 
0 22 26 13 3 2 19 4 21 23 32 
0 23 22 26 13 27 3 2 5 1 32 
0 23 22 26 13 27 3 2 5 1 32 
0 23 21 22 26 13 27 3 2 5 32 
0 23 22 26 21 6 4 27 13 3 5 1 32 
0 23 21 26 13 27 3 2 5 1 32 
0 22 26 23 21 6 4 27 13 3 5 32 
0 23 21 6 4 27 13 3 2 5 1 32 
0 23 22 26 21 6 4 27 13 3 32 
0 23 21 6 4 27 19 3 26 32 
0 23 21 6 4 27 13 3 19 22 32 
0 23 21 6 4 27 13 3 2 19 32 
0 23 21 6 4 27 13 3 19 32 
0 23 21 6 4 27 13 3 19 26 22 32 
0 23 21 6 4 13 27 19 26 22 32 
0 23 21 6 4 27 19 3 26 32 
0 22 26 13 3 2 19 4 21 23 32 
0 23 22 26 13 27 3 2 5 1 32 
0 23 22 26 13 27 3 2 5 1 32 
0 22 26 23 21 6 4 27 13 3 5 32 
0 23 21 22 26 13 27 3 2 5 32 
0 23 22 26 21 6 4 27 13 3 5 1 32 
0 23 21 26 13 27 3 2 5 1 32 
0 23 21 6 4 27 13 3 2 5 1 32 
0 23 22 26 21 6 4 27 13 3 32 
0 23 21 6 4 27 19 3 26 32 
0 23 21 6 4 27 13 3 19 22 32 
0 23 21 6 4 27 13 3 19 32 
0 23 21 6 4 27 13 3 2 19 32 
0 23 21 6 4 27 13 3 19 26 22 32 
0 22 26 13 3 2 19 4 21 23 32 
0 23 21 6 4 27 19 3 26 32 
0 23 21 6 4 13 27 19 26 22 32 
0 23 22 26 4 27 13 3 2 32 
0 23 22 26 13 27 3 2 5 1 32 
0 23 21 26 13 27 3 2 5 1 32 
0 23 22 26 21 6 4 27 13 3 5 1 32 
0 22 26 23 21 6 4 27 13 3 5 32 
0 23 21 22 26 13 27 3 2 5 32 
0 23 21 6 4 27 13 3 2 5 1 32 
0 23 22 26 21 6 4 27 13 3 32 
0 23 21 6 4 27 19 3 26 32 
0 23 21 6 4 27 13 3 19 22 32 
0 23 21 6 4 27 13 3 2 19 32 
0 23 21 6 4 27 13 3 19 32 
0 23 21 6 4 27 13 3 19 26 22 32 
0 23 21 6 4 27 19 3 26 32 
0 23 21 6 4 13 27 19 26 22 32 
0 22 26 13 3 2 19 4 21 23 32 
0 23 22 26 4 27 13 3 2 32 
0 23 22 26 13 27 3 2 5 1 32 
0 23 22 26 21 6 4 27 13 3 5 1 32 
0 22 26 23 21 6 4 27 13 3 5 32 
0 23 21 22 26 13 27 3 2 5 32 
0 23 21 26 13 27 3 2 5 1 32 
0 23 21 6 4 27 13 3 2 5 1 32 
0 23 22 26 21 6 4 27 13 3 32 
0 23 21 6 4 27 19 3 26 32 
0 23 21 6 4 27 13 3 19 22 32 
0 23 21 6 4 27 13 3 2 19 32 
0 23 21 6 4 13 27 19 26 22 32 
0 23 21 6 4 27 13 3 19 26 22 32 
0 23 21 6 4 27 19 3 26 32 
0 22 26 13 3 2 19 4 21 23 32 
0 23 22 26 4 27 13 3 2 32 
0 23 22 26 13 27 3 2 5 1 32 
0 22 26 23 21 6 4 27 13 3 5 32 
0 23 22 26 21 6 4 27 13 3 5 1 32 
0 23 21 22 26 13 27 3 2 5 32 
0 23 21 26 13 27 3 2 5 1 32 
0 23 21 6 4 27 13 3 2 5 1 32 
0 23 22 26 21 6 4 27 13 3 32 
0 23 21 6 4 27 19 3 26 32 
0 23 21 6 4 27 13 3 19 22 32 
0 23 21 6 4 27 13 3 19 32 
0 23 21 6 4 27 13 3 2 19 32 
0 22 26 13 3 2 19 4 21 23 32 
0 23 21 6 4 27 13 3 19 26 22 32 
0 23 21 6 4 27 19 3 26 32 
0 23 21 6 4 13 27 19 26 22 32 
0 23 22 26 4 27 13 3 2 32 
0 23 22 26 13 27 3 2 5 1 32 
0 22 26 23 21 6 4 27 13 3 5 32 
0 23 22 26 21 6 4 27 13 3 5 1 32 
0 23 21 22 26 13 27 3 2 5 32 
0 23 21 26 13 27 3 2 5 1 32 
0 23 21 6 4 27 13 3 2 5 1 32 
0 23 21 6 4 27 19 3 26 32 
0 23 22 26 21 6 4 27 13 3 32 
0 23 21 6 4 27 13 3 19 22 32 
0 23 21 6 4 27 13 3 2 19 32 
0 23 21 6 4 27 13 3 19 32 
0 23 21 6 4 27 19 3 26 32 
0 23 21 6 4 13 27 19 26 22 32 
0 22 26 13 3 2 19 4 21 23 32 
0 23 21 6 4 27 13 3 19 26 22 32 
0 23 22 26 4 27 13 3 2 32 
0 23 22 26 13 27 3 2 5 1 32 
0 23 22 26 21 6 4 27 13 3 5 1 32 
0 22 26 23 21 6 4 27 13 3 5 32 
0 23 21 22 26 13 27 3 2 5 32 
0 23 21 26 13 27 3 2 5 1 32 
0 23 21 6 4 27 13 3 2 5 1 32 
0 23 22 26 21 6 4 27 13 3 32 
0 23 21 6 4 27 19 3 26 32 
0 23 21 6 4 27 13 3 19 22 32 
0 23 21 6 4 27 13 3 2 19 32 
0 23 21 6 4 27 19 3 26 32 
0 23 21 6 4 27 13 3 19 26 22 32 
0 22 26 13 3 2 19 4 21 23 32 
0 23 21 6 4 13 27 19 26 22 32 
0 23 22 26 4 27 13 3 2 32 
0 23 22 26 13 27 3 2 5 1 32 
0 22 26 23 21 6 4 27 13 3 5 32 
0 23 22 26 21 6 4 27 13 3 5 1 32 
0 23 21 22 26 13 27 3 2 5 32 
0 23 21 26 13 27 3 2 5 1 32 
0 23 21 6 4 27 13 3 2 5 1 32 
0 23 22 26 21 6 4 27 13 3 32 
0 23 21 6 4 27 19 3 26 32 
0 23 21 6 4 26 13 27 3 19 32 
0 23 21 6 4 27 13 3 19 32 
0 23 21 6 4 27 13 3 2 19 32 
0 23 21 6 4 27 19 3 26 32 
0 23 21 6 4 13 27 19 26 22 32 
0 23 21 6 4 27 13 3 19 26 22 32 
0 22 26 13 3 2 19 4 21 23 32 
0 23 22 26 4 27 13 3 2 32 
0 23 22 26 13 27 3 2 5 1 32 
0 23 21 22 26 13 27 3 2 5 32 
0 22 26 23 21 6 4 27 13 3 5 32 
0 23 22 26 21 6 4 27 13 3 5 1 32 
0 23 21 26 13 27 3 2 5 1 32 
0 23 21 6 4 27 13 3 2 5 1 32 
0 23 22 26 21 6 4 27 13 3 32 
0 23 21 6 4 27 19 3 26 32 
0 23 21 6 4 27 13 3 19 22 32 
0 23 21 6 4 27 13 3 19 32 
0 23 21 6 4 27 13 3 2 19 32 
0 23 21 6 4 27 19 3 26 32 
0 23 21 6 4 13 27 19 26 22 32 
0 23 21 6 4 27 13 3 19 26 22 32 
0 22 26 13 3 2 19 4 21 23 32 
0 23 22 26 4 27 13 3 2 32 
0 23 22 26 13 27 3 2 5 1 32 
0 22 26 23 21 6 4 27 13 3 5 32 
0 23 21 22 26 13 27 3 2 5 32 
0 23 22 26 21 6 4 27 13 3 5 1 32 
0 23 21 26 13 27 3 2 5 1 32 
0 23 21 6 4 27 13 3 2 5 1 32 
0 23 22 26 21 6 4 27 13 3 32 
0 23 21 6 4 27 19 3 26 32 
0 23 21 6 4 27 13 3 19 22 32 
0 23 21 6 4 27 13 3 2 19 32 
0 23 21 6 4 27 13 3 19 32 
0 23 21 6 4 27 13 3 19 26 22 32 
0 23 21 6 4 27 19 3 26 32 
0 23 21 6 4 13 27 19 26 22 32 
0 22 26 13 3 2 19 4 21 23 32 
0 23 22 26 4 27 13 3 2 32 
0 23 22 26 13 27 3 2 5 1 32 
0 23 22 26 21 6 4 27 13 3 5 1 32 
0 22 26 23 21 6 4 27 13 3 5 32 
0 23 21 22 26 13 27 3 2 5 32 
0 23 21 26 13 27 3 2 5 1 32 
0 23 21 6 4 27 13 3 2 5 1 32 
0 23 22 26 21 6 4 27 13 3 32 
0 23 21 6 4 27 19 3 26 32 
0 23 21 6 4 27 13 3 19 22 32 
0 23 21 6 4 27 13 3 2 19 32 
0 23 21 6 4 27 13 3 19 32 
0 23 21 6 4 27 13 3 19 26 22 32 
0 23 21 6 4 13 27 19 26 22 32 
0 23 21 6 4 27 19 3 26 32 
0 22 26 13 3 2 19 4 21 23 32 
